
Gurobi 10.0.0 (linux64) logging started Fri Nov 25 16:20:38 2022

Set parameter LogFile to value "../results/k04_n050_d015/k04_n090_d019_GEOM90a_A-MILO_log.txt"
Gurobi Optimizer version 10.0.0 build v10.0.0rc2 (linux64)

CPU model: Intel(R) Xeon(R) CPU E5-2630 v4 @ 2.20GHz, instruction set [SSE2|AVX|AVX2]
Thread count: 20 physical cores, 40 logical processors, using up to 10 threads

Optimize a model with 9558 rows, 1149 columns and 28764 nonzeros
Model fingerprint: 0xcbe38437
Coefficient statistics:
  Matrix range     [1e+00, 1e+00]
  Objective range  [1e+00, 9e+00]
  Bounds range     [1e+00, 1e+00]
  RHS range        [1e+00, 2e+00]
Presolve removed 217 rows and 28 columns
Presolve time: 0.03s
Presolved: 9341 rows, 1121 columns, 28040 nonzeros

Iteration    Objective       Primal Inf.    Dual Inf.      Time
       0    1.3100000e+02   4.086000e+03   0.000000e+00      0s
     765    4.2170000e+03   0.000000e+00   0.000000e+00      0s

Use crossover to convert LP symmetric solution to basic solution...
Crossover log...

     178 PPushes remaining with PInf 0.0000000e+00                 0s
       0 PPushes remaining with PInf 0.0000000e+00                 0s

  Push phase complete: Pinf 0.0000000e+00, Dinf 0.0000000e+00      0s

Iteration    Objective       Primal Inf.    Dual Inf.      Time
     946    4.2170000e+03   0.000000e+00   0.000000e+00      0s

Solved in 946 iterations and 0.08 seconds (0.04 work units)
Optimal objective  4.217000000e+03
